(set-logic QF_S)
(declare-fun var0 () Bool)
(declare-fun var1 () Int)
(declare-fun var2 () String)
(declare-fun var3 () String)
(declare-fun var4 () String)
(declare-fun var5 () String)
(declare-fun var6 () Int)
(declare-fun var7 () Int)
(declare-fun var8 () Int)
(assert (not var0))
(assert (<= var1 160))
(assert (> (str.indexof (str.replace var2 var3 var4) (str.replace var5 var5 var4) (str.indexof var3 "\\/C9iy_O7Q" var6)) (str.to.int (str.substr var2 10 var7))))
(assert (> (str.to.int var5) (str.indexof var4 "X!DL~KxIN%" var8)))
(check-sat)